20 61 121
1 3 2
1 6 1
1 9 1
1 11 1
1 16 5
1 19 2
1 20 4
2 7 2
2 8 4
2 9 2
2 13 1
2 16 3
2 17 3
3 5 4
3 6 2
3 7 3
3 8 5
3 9 3
3 12 2
3 18 3
3 20 1
4 5 2
4 9 1
4 15 1
4 16 1
5 10 1
5 11 3
5 16 4
5 18 5
5 20 2
6 9 4
6 14 3
6 17 1
6 18 4
7 9 1
7 11 1
7 18 1
7 19 3
8 11 3
8 20 1
9 11 1
9 12 2
9 16 2
9 18 1
9 19 4
9 20 1
10 12 3
10 14 4
10 15 4
10 16 2
11 15 3
11 16 3
12 13 3
12 16 2
12 17 2
12 19 1
13 15 4
13 20 3
14 18 2
15 16 5
17 18 2
